unsat
(define-fun f ((x (_ BitVec 64))) (_ BitVec 64) (let ((_let_1 (arba (ehad (bvnot (bvxor x (ehad x))))))) (let ((_let_2 (ehad (bvnot x)))) (im (bvand #b0000000000000000000000000000000000000000000000000000000000000001 x) (bvnot #b0000000000000000000000000000000000000000000000000000000000000001) (im (bvand #b0000000000000000000000000000000000000000000000000000000000000101 _let_2) (im (shesh (shesh (shesh (smol (shesh x))))) _let_1 (arba (ehad (bvxor x _let_2)))) _let_1)))))
10.89user 0.07system 0:10.97elapsed 99%CPU (0avgtext+0avgdata 116036maxresident)k
0inputs+8outputs (0major+24874minor)pagefaults 0swaps
